p cnf 91 377
10 12 26 -27 -28 -34 0
12 13 57 -73 78 79 0
20 22 -69 -72 -77 88 0
1 -42 45 70 83 0
-3 -19 -23 -51 -89 0
4 19 23 -68 -91 0
-4 52 -61 78 82 0
7 8 9 -48 64 0
-8 42 45 46 -55 0
-8 -42 45 46 83 0
10 11 12 26 -28 0
-13 -49 68 90 -91 0
19 23 -65 74 -75 0
-19 -23 -24 -27 -28 0
20 22 41 53 -72 0
7 8 -48 55 64 0
-19 -23 67 -86 89 0
-49 -50 -51 68 -91 0
1 -10 70 83 0
1 42 69 83 0
3 19 56 59 0
3 -49 -50 51 0
3 -50 66 -89 0
4 23 51 -91 0
-4 52 -78 -84 0
-5 -6 74 82 0
-5 35 52 82 0
7 8 9 64 0
7 8 48 55 0
-7 -8 -45 -83 0
-7 -8 -60 -83 0
-8 -47 -48 -64 0
9 40 -43 46 0
9 40 45 64 0
10 -27 -33 34 0
11 -12 -31 78 0
11 -19 26 34 0
12 57 -73 79 0
13 49 67 -68 0
-13 66 86 90 0
-15 29 -31 57 0
17 38 -44 -77 0
-17 22 -72 -77 0
18 38 47 64 0
-18 -19 -41 -48 0
-18 -38 -39 -64 0
-19 67 85 91 0
-20 -21 70 -77 0
21 69 70 -72 0
23 -65 74 -75 0
24 -32 -35 -61 0
-26 28 -31 57 0
29 -30 58 -73 0
32 -35 -61 82 0
36 62 -63 82 0
50 -66 67 -89 0
-66 -86 89 90 0
1 42 45 -87 0
3 -49 -50 -51 0
4 51 -68 -91 0
-4 -63 78 84 0
-6 37 62 82 0
7 -47 55 64 0
-8 -69 83 88 0
10 11 -28 34 0
10 12 57 -79 0
10 20 21 22 0
10 -27 -34 -57 0
13 49 67 85 0
-14 57 -73 79 0
19 21 23 38 0
19 23 -30 -36 0
19 23 39 60 0
19 23 75 -80 0
-19 -23 25 30 0
20 -38 53 -70 0
-21 -69 70 -88 0
22 -44 71 -72 0
-23 67 -89 91 0
-24 -25 -28 -59 0
-27 -28 34 57 0
35 -63 82 84 0
41 53 -54 71 0
1 2 6 0
1 60 83 0
1 -60 -87 0
-1 -2 35 0
-1 8 -70 0
2 -32 56 0
2 -32 -61 0
2 56 59 0
-2 -5 61 0
-2 -5 74 0
3 4 61 0
3 24 59 0
3 24 61 0
3 -51 -68 0
3 56 -62 0
-3 16 50 0
-3 -68 -86 0
4 61 82 0
4 -61 -78 0
4 74 -82 0
5 -36 61 0
5 78 -84 0
-5 -19 -63 0
7 9 -43 0
7 -43 -87 0
7 45 -87 0
8 -10 -88 0
-8 10 -70 0
-9 -40 43 0
10 22 -69 0
11 -31 -80 0
-12 -14 49 0
-12 73 -78 0
13 86 -90 0
-13 90 -91 0
14 78 -79 0
-14 58 -73 0
-14 58 -76 0
15 -29 30 0
-16 -19 -50 0
-16 -85 -91 0
17 18 39 0
17 44 -71 0
17 70 77 0
-17 -39 -53 0
-17 44 77 0
-18 -23 -40 0
19 27 34 0
19 47 64 0
19 -65 -75 0
-19 58 -79 0
-20 -22 -53 0
-21 -70 88 0
-22 53 -55 0
23 -27 56 0
23 28 59 0
23 32 34 0
23 40 45 0
-23 -47 81 0
-23 -81 -85 0
24 -32 -62 0
-24 35 37 0
25 26 34 0
25 27 56 0
25 -30 33 0
25 33 -74 0
25 36 -59 0
-25 -26 -33 0
26 -27 -31 0
27 -34 -57 0
29 -36 -37 0
-29 -30 -73 0
-31 58 76 0
32 -56 61 0
-32 56 -62 0
-33 -36 -56 0
-33 -76 -80 0
36 -37 78 0
38 70 72 0
-38 41 71 0
39 41 48 0
40 43 87 0
40 55 -87 0
41 -45 70 0
-42 46 -87 0
-45 -53 55 0
46 60 -87 0
-47 54 64 0
-50 -66 89 0
-50 89 -91 0
51 -68 91 0
51 -81 85 0
51 -81 -85 0
51 85 -86 0
-51 -85 -91 0
52 -61 62 0
-54 -70 72 0
58 -73 -78 0
-58 76 80 0
-61 62 84 0
65 -74 -82 0
-66 86 -89 0
67 68 -86 0
68 -86 90 0
-78 -79 84 0
89 90 -91 0
1 2 0
1 24 0
1 32 0
1 -36 0
1 -84 0
1 88 0
-1 8 0
-1 -24 0
-1 -29 0
-1 -56 0
-1 59 0
-1 -60 0
-1 69 0
2 5 0
2 -32 0
2 36 0
2 59 0
2 -61 0
2 65 0
-2 29 0
3 4 0
3 -26 0
3 -52 0
3 -62 0
3 -67 0
3 -74 0
-3 -16 0
-3 26 0
-3 -26 0
-3 44 0
-3 -51 0
-3 56 0
-3 -89 0
-3 91 0
4 16 0
4 44 0
4 -61 0
4 63 0
4 68 0
4 74 0
4 78 0
4 82 0
4 89 0
-4 84 0
-4 91 0
5 -36 0
5 61 0
5 -62 0
5 63 0
5 -78 0
-5 -33 0
-5 63 0
-5 -65 0
-5 78 0
6 35 0
6 -36 0
6 61 0
6 -82 0
-6 -19 0
-6 -35 0
7 45 0
7 -47 0
7 60 0
-7 46 0
-7 -46 0
-7 70 0
-7 87 0
8 9 0
8 -46 0
8 55 0
8 60 0
8 83 0
-8 -9 0
-8 -10 0
-8 -19 0
-8 -42 0
-8 48 0
-8 -53 0
-8 -55 0
-8 60 0
-8 69 0
-8 87 0
9 45 0
9 46 0
-9 -45 0
-9 -46 0
10 57 0
10 -60 0
10 81 0
-10 -12 0
-10 14 0
-10 15 0
-10 -26 0
-10 27 0
-10 -30 0
-10 -83 0
11 12 0
11 13 0
11 15 0
11 -23 0
11 -76 0
-11 13 0
-11 -15 0
-11 29 0
-11 -29 0
-11 31 0
-11 43 0
-11 -57 0
-11 80 0
12 -26 0
12 -27 0
12 -34 0
12 80 0
-12 -13 0
-12 -29 0
-12 31 0
-12 -57 0
-12 -58 0
-12 62 0
-12 -79 0
13 -51 0
13 57 0
13 69 0
13 -79 0
13 82 0
13 85 0
-13 -67 0
14 31 0
14 -57 0
14 63 0
-14 -15 0
-14 -18 0
-14 57 0
-14 78 0
15 25 0
15 31 0
15 -57 0
15 -58 0
-15 76 0
16 49 0
16 51 0
16 56 0
-16 -49 0
-16 67 0
-16 -85 0
-16 -91 0
17 19 0
17 -22 0
-17 20 0
-17 -23 0
18 21 0
18 41 0
18 54 0
18 69 0
-18 54 0
-18 -60 0
-18 -69 0
-18 81 0
19 41 0
19 -50 0
19 54 0
19 69 0
19 -88 0
-19 -26 0
-19 -34 0
-19 -38 0
-19 -40 0
-19 -43 0
-19 -44 0
-19 -56 0
-19 58 0
-19 59 0
-19 -59 0
-19 65 0
-19 79 0
-19 80 0
-19 84 0
-19 -85 0
-19 86 0
-19 -90 0
20 -55 0
20 -70 0
-20 69 0
-20 72 0
-20 77 0
21 22 0
21 23 0
21 -72 0
